1	34	39
2	1084	35
3	1079	629
4	29	621
5	41	341
6	1072	355
7	310	42
8	814	39
9	586	42
10	582	359
11	847	361
12	287	352
13	272	613
14	589	601
15	857	598
16	966	474
17	706	471
18	447	471
19	143	459
20	150	197
21	449	188
22	724	187
23	962	184
